Solver command line: ['C:\\Program Files\\IBM\\ILOG\\CPLEX_Studio221\\cplex\\bin\\x64_win64\\cplex.exe']


Welcome to IBM(R) ILOG(R) CPLEX(R) Interactive Optimizer 22.1.0.0
  with Simplex, Mixed Integer & Barrier Optimizers
5725-A06 5725-A29 5724-Y48 5724-Y49 5724-Y54 5724-Y55 5655-Y21
Copyright IBM Corp. 1988, 2022.  All Rights Reserved.

Type 'help' for a list of available commands.
Type 'help' followed by a command name for more
information on commands.

CPLEX> Logfile 'cplex.log' closed.
Logfile 'data\30_bus\3.5_trips_per_bus\3_6_3\step1.log' open.
CPLEX> New value for mixed integer solutions limit: 1
CPLEX> New value for time limit in seconds: 501
CPLEX> New value for default parallel thread count: 1
CPLEX> Problem 'C:\Users\Mathis\AppData\Local\Temp\tmp7dhov1dc.pyomo.lp' read.
Read time = 0.06 sec. (7.29 ticks)
CPLEX> Problem name         : C:\Users\Mathis\AppData\Local\Temp\tmp7dhov1dc.pyomo.lp
Objective sense      : Minimize
Variables            :   37685  [Nneg: 17198,  Binary: 20487]
Objective nonzeros   :   20452
Linear constraints   :   59877  [Less: 56111,  Greater: 1035,  Equal: 2731]
  Nonzeros           :  231322
  RHS nonzeros       :   43276

Variables            : Min LB: 0.000000         Max UB: 1.000000       
Objective nonzeros   : Min   : 1.000000         Max   : 398161.0       
Linear constraints   :
  Nonzeros           : Min   : 0.2192982        Max   : 4723.000       
  RHS nonzeros       : Min   : 1.000000         Max   : 4543.000       
CPLEX> Version identifier: 22.1.0.0 | 2022-03-09 | 1a383f8ce
CPXPARAM_Threads                                 1
CPXPARAM_MIP_Limits_Solutions                    1
CPXPARAM_TimeLimit                               501
Tried aggregator 4 times.
MIP Presolve eliminated 4702 rows and 1094 columns.
MIP Presolve modified 40 coefficients.
Aggregator did 337 substitutions.
Reduced MIP has 54838 rows, 36254 columns, and 218030 nonzeros.
Reduced MIP has 19947 binaries, 0 generals, 0 SOSs, and 0 indicators.
Presolve time = 0.27 sec. (287.60 ticks)
Probing fixed 198 vars, tightened 754 bounds.
Probing time = 0.77 sec. (649.42 ticks)
Cover probing fixed 0 vars, tightened 34 bounds.
Tried aggregator 2 times.
Detecting symmetries...
MIP Presolve eliminated 1450 rows and 1565 columns.
MIP Presolve modified 31845 coefficients.
Aggregator did 5 substitutions.
Reduced MIP has 53383 rows, 34684 columns, and 212688 nonzeros.
Reduced MIP has 19748 binaries, 336 generals, 0 SOSs, and 0 indicators.
Presolve time = 0.28 sec. (295.60 ticks)
Probing fixed 66 vars, tightened 459 bounds.
Probing time = 0.47 sec. (234.68 ticks)
Cover probing fixed 0 vars, tightened 70 bounds.
Clique table members: 80108.
Tightened 13 constraints.
MIP emphasis: balance optimality and feasibility.
MIP search method: dynamic search.
Parallel mode: none, using 1 thread.
Root relaxation solution time = 7.14 sec. (9458.09 ticks)

        Nodes                                         Cuts/
   Node  Left     Objective  IInf  Best Integer    Best Bound    ItCnt     Gap

      0     0   1.24037e+07   198                 1.24037e+07    38473         
      0     0   1.24037e+07    87                    Cuts: 37    38562         
      0     0   1.24037e+07   108                   Cuts: 103    38765         
      0     0   1.24037e+07    99                    Cuts: 60    38900         
      0     0   1.24037e+07   125                   Cuts: 116    39169         
*     0+    0                       1.24037e+07   1.24037e+07             0.00%
      0     0        cutoff         1.24037e+07   1.24037e+07    39169    0.00%
Elapsed time = 14.89 sec. (19479.93 ticks, tree = 0.01 MB, solutions = 1)

Clique cuts applied:  71
Implied bound cuts applied:  11
Zero-half cuts applied:  1

Root node processing (before b&c):
  Real time             =   14.91 sec. (19482.15 ticks)
Sequential b&c:
  Real time             =    0.00 sec. (0.00 ticks)
                          ------------
Total (root+branch&cut) =   14.91 sec. (19482.15 ticks)

Solution pool: 1 solution saved.

MIP - Integer optimal solution:  Objective =  1.2403672000e+07
Solution time =   14.91 sec.  Iterations = 39169  Nodes = 0
Deterministic time = 19482.26 ticks  (1307.01 ticks/sec)

CPLEX> Incumbent solution written to file 'C:\Users\Mathis\AppData\Local\Temp\tmpe_6y97l5.cplex.sol'.
CPLEX> 
